%%% static parameters %%%
timespan = 1;
Fact = [2];
Distr1 = [5];
Distr2 = [10];
Clients_N = [120];
Demand_W = [15];
Lt0 = [4];
Lt1 = [4];
SS_ = [0.85];
DS_D = [5];
K = [200];
MA = [500];
%%% dynamic parameters %%%
lost_ratio_sales_ret_th = 0.6917845434021938;
lost_ratio_sales_ret_w = 25;
lost_ratio_sales_dis_th = 0.8610974402632294;
lost_ratio_sales_dis_w = 69;
lost_ratio_sales_fac_th = 0.932322157444351;
lost_ratio_sales_fac_w = 93;
stock_customer_MA_mean_relative_th = 0.635871741146097;
stock_customer_MA_mean_relative_w = 56;
stock_distributor_MA_mean_relative_th = 0.5379152451668795;
stock_distributor_MA_mean_relative_w = 43;
stock_retailer_MA_mean_relative_th = 0.9770624825523991;
stock_retailer_MA_mean_relative_w = 30;
stock_factory_MA_mean_relative_th = 0.18380771633436677;
stock_factory_MA_mean_relative_w = 16;
